qbf_easy_train/easy_1466_SAT.qdimacs
p cnf 31 84
a 27 13 0
e 1 2 3 4 5 6 7 8 9 10 11 12 14 15 16 17 18 19 20 21 22 23 24 25 26 28 29 30 31 0
3 1 0
3 2 0
-1 -2 -3 0
5 -2 -6 0
-5 2 -6 0
5 2 6 0
-5 -2 6 0
-4 -6 -7 0
4 6 -7 0
-4 6 7 0
4 -6 7 0
9 -7 0
9 -8 0
7 8 -9 0
10 3 0
10 -9 0
-3 9 -10 0
-12 -2 0
-12 -8 0
2 8 12 0
-14 -12 0
-14 -13 0
12 13 14 0
-15 -14 0
-15 14 0
-16 -11 0
-16 15 0
11 -15 16 0
-17 -12 0
-17 -11 0
12 11 17 0
18 17 0
18 4 0
-17 -4 -18 0
-5 12 -19 0
5 -12 -19 0
-5 -12 19 0
5 12 19 0
-20 -18 0
-20 -19 0
18 19 20 0
-21 16 0
-21 -20 0
-16 20 21 0
22 -10 0
22 21 0
10 -21 -22 0
23 24 0
-23 24 0
22 24 -25 0
-22 -24 -25 0
22 -24 25 0
-22 24 25 0
26 12 0
26 -2 0
-12 2 -26 0
-4 13 -27 0
4 -13 -27 0
-4 -13 27 0
4 13 27 0
28 26 0
28 27 0
-26 -27 -28 0
8 7 -29 0
-8 -7 -29 0
8 -7 29 0
-8 7 29 0
-28 29 -30 0
28 -29 -30 0
-28 -29 30 0
28 29 30 0
25 -30 -31 0
-25 30 -31 0
25 30 31 0
-25 -30 31 0
-12 -1 -29 20 -22 -19 0
-19 16 -25 0
20 18 -12 -25 -4 -5 0
-4 -9 -18 0
23 -16 14 7 -10 -17 0
11 -15 22 -13 -4 -21 -16 -3 0
31 21 6 8 -7 28 0
5 -3 16 -9 4 -25 0
31 0
