sat_easy_train/easy_1466_SAT.dimacs
p cnf 112 360
-3 -1 0
-3 2 0
1 -2 3 0
-4 -1 -5 0
4 1 -5 0
-4 1 5 0
4 -1 5 0
-3 -5 -6 0
3 5 -6 0
-3 5 6 0
3 -5 6 0
8 -7 0
8 -3 0
7 3 -8 0
9 6 0
9 -8 0
-6 8 -9 0
-10 1 -11 0
10 -1 -11 0
-10 -1 11 0
10 1 11 0
-8 10 -12 0
8 -10 -12 0
-8 -10 12 0
8 10 12 0
-13 -11 0
-13 -12 0
11 12 13 0
-14 9 0
-14 13 0
-9 -13 14 0
18 -16 0
18 17 0
16 -17 -18 0
15 -18 -19 0
-15 18 -19 0
15 18 19 0
-15 -18 19 0
-20 19 0
-20 16 0
-19 -16 20 0
21 -11 0
21 20 0
11 -20 -21 0
-22 7 0
-22 -3 0
-7 3 22 0
-23 -4 0
-23 -4 0
4 23 0
24 -22 0
24 23 0
22 -23 -24 0
22 18 -25 0
-22 -18 -25 0
22 -18 25 0
-22 18 25 0
25 17 -26 0
-25 -17 -26 0
25 -17 26 0
-25 17 26 0
15 -4 -27 0
-15 4 -27 0
15 4 27 0
-15 -4 27 0
28 27 0
28 -4 0
-27 4 -28 0
29 26 0
29 28 0
-26 -28 -29 0
30 24 0
30 -29 0
-24 29 -30 0
-32 31 0
-32 -17 0
-31 17 32 0
33 30 0
33 -32 0
-30 32 -33 0
34 -27 0
34 27 0
-35 -34 0
-35 -17 0
34 17 35 0
-11 35 -36 0
11 -35 -36 0
-11 -35 36 0
11 35 36 0
37 33 0
37 36 0
-33 -36 -37 0
38 21 0
38 -37 0
-21 37 -38 0
-39 -15 0
-39 -7 0
15 7 39 0
-17 39 -40 0
17 -39 -40 0
-17 -39 40 0
17 39 40 0
-41 40 0
-41 -1 0
-40 1 41 0
42 -38 0
42 41 0
38 -41 -42 0
-14 -42 -43 0
14 42 -43 0
-14 42 43 0
14 -42 43 0
-44 -15 -45 0
44 15 -45 0
-44 15 45 0
44 -15 45 0
46 44 0
46 45 0
-44 -45 -46 0
47 -28 0
47 -46 0
28 46 -47 0
-47 -7 -48 0
47 7 -48 0
-47 7 48 0
47 -7 48 0
-49 43 0
-49 -48 0
-43 48 49 0
50 45 0
50 -19 0
-45 19 -50 0
-50 -2 -51 0
50 2 -51 0
-50 2 51 0
50 -2 51 0
52 50 0
52 51 0
-50 -51 -52 0
55 -53 0
55 54 0
53 -54 -55 0
-17 -6 -56 0
17 6 -56 0
-17 6 56 0
17 -6 56 0
-57 -55 0
-57 56 0
55 -56 57 0
58 52 0
58 57 0
-52 -57 -58 0
59 44 0
59 7 0
-44 -7 -59 0
-60 17 0
-60 44 0
-17 -44 60 0
61 -59 0
61 -60 0
59 60 -61 0
-58 61 -62 0
58 -61 -62 0
-58 -61 62 0
58 61 62 0
64 -63 0
64 25 0
63 -25 -64 0
-65 -64 0
-65 -19 0
64 19 65 0
5 54 -66 0
-5 -54 -66 0
5 -54 66 0
-5 54 66 0
67 50 0
67 -66 0
-50 66 -67 0
-68 65 0
-68 67 0
-65 -67 68 0
16 59 -69 0
-16 -59 -69 0
16 -59 69 0
-16 59 69 0
-71 69 0
-71 -70 0
-69 70 71 0
73 -72 0
73 69 0
72 -69 -73 0
74 -31 0
74 60 0
31 -60 -74 0
-75 -73 0
-75 74 0
73 -74 75 0
76 71 0
76 -75 0
-71 75 -76 0
-77 66 0
-77 -22 0
-66 22 77 0
78 10 0
78 -77 0
-10 77 -78 0
-79 -76 0
-79 78 0
76 -78 79 0
-80 68 0
-80 -79 0
-68 79 80 0
-4 -17 -81 0
4 17 -81 0
-4 17 81 0
4 -17 81 0
82 -24 0
82 -81 0
24 81 -82 0
-83 -63 0
-83 -22 0
63 22 83 0
82 -83 -84 0
-82 83 -84 0
82 83 84 0
-82 -83 84 0
80 84 -85 0
-80 -84 -85 0
80 -84 85 0
-80 84 85 0
59 4 -86 0
-59 -4 -86 0
59 -4 86 0
-59 4 86 0
-87 86 0
-87 15 0
-86 -15 87 0
88 56 0
88 -2 0
-56 2 -88 0
-89 69 0
-89 3 0
-69 -3 89 0
90 -88 0
90 89 0
88 -89 -90 0
91 87 0
91 90 0
-87 -90 -91 0
20 92 0
-20 92 0
-94 -22 0
-94 -93 0
22 93 94 0
-95 39 0
-95 8 0
-39 -8 95 0
-95 77 -96 0
95 -77 -96 0
-95 -77 96 0
95 77 96 0
97 -94 0
97 -96 0
94 96 -97 0
-17 -72 -98 0
17 72 -98 0
-17 72 98 0
17 -72 98 0
-99 -3 0
-99 -18 0
3 18 99 0
100 98 0
100 99 0
-98 -99 -100 0
-101 97 0
-101 100 0
-97 -100 101 0
-102 -92 0
-102 -101 0
92 101 102 0
91 102 -103 0
-91 -102 -103 0
91 -102 103 0
-91 102 103 0
-104 -85 0
-104 103 0
85 -103 104 0
-105 -62 0
-105 104 0
62 -104 105 0
-106 -49 0
-106 -105 0
49 105 106 0
51 23 -107 0
-51 -23 -107 0
51 -23 107 0
-51 23 107 0
-108 34 0
-108 64 0
-34 -64 108 0
-109 -107 0
-109 108 0
107 -108 109 0
-110 -16 0
-110 34 0
16 -34 110 0
111 -109 0
111 -110 0
109 110 -111 0
112 -106 0
112 111 0
106 -111 -112 0
-36 -105 74 0
-84 -10 39 42 0
39 -27 0
-49 -84 -16 -101 0
-65 -75 -111 91 9 -52 0
-17 40 -90 -95 0
31 -83 -72 -38 0
74 70 -17 -63 0
-105 -34 0
-7 16 85 0
73 -81 -86 -57 95 16 0
-39 -4 -96 0
-10 80 0
-65 54 0
-110 102 4 0
-41 68 -9 61 76 40 0
103 -60 -104 77 53 -67 0
-37 -52 -49 -81 -12 0
19 -64 100 -3 79 0
-50 -11 37 -103 0
-51 -61 7 -12 21 0
-80 -39 0
-87 -51 0
18 32 -71 -76 0
-103 78 0
103 51 -95 99 -7 -34 0
110 -15 0
-4 102 -84 -33 9 -66 0
-40 -109 68 0
35 12 61 0
48 60 0
-9 -97 77 -111 -39 0
57 -15 103 64 0
-87 44 83 82 -96 0
4 16 49 0
-72 25 -64 0
112 -9 0
-45 60 10 102 0
-91 -111 64 -109 0
-67 11 90 70 0
21 -65 89 47 0
-6 -49 106 99 0
37 74 -92 107 -5 -25 0
69 -32 0
111 77 15 -72 19 0
45 7 -106 -5 0
-54 -98 22 45 -14 0
112 0
